
******************************************************************************
This program contains Ipopt, a library for large-scale nonlinear optimization.
 Ipopt is released as open source code under the Eclipse Public License (EPL).
         For more information visit http://projects.coin-or.org/Ipopt

This version of Ipopt was compiled from source code available at
    https://github.com/IDAES/Ipopt as part of the Institute for the Design of
    Advanced Energy Systems Process Systems Engineering Framework (IDAES PSE
    Framework) Copyright (c) 2018-2019. See https://github.com/IDAES/idaes-pse.

This version of Ipopt was compiled using HSL, a collection of Fortran codes
    for large-scale scientific computation.  All technical papers, sales and
    publicity material resulting from use of the HSL codes within IPOPT must
    contain the following acknowledgement:
        HSL, a collection of Fortran codes for large-scale scientific
        computation. See http://www.hsl.rl.ac.uk.
******************************************************************************

This is Ipopt version 3.13.2, running with linear solver ma27.

Number of nonzeros in equality constraint Jacobian...:     1840
Number of nonzeros in inequality constraint Jacobian.:        0
Number of nonzeros in Lagrangian Hessian.............:     3296

Total number of variables............................:      640
                     variables with only lower bounds:      128
                variables with lower and upper bounds:      448
                     variables with only upper bounds:        0
Total number of equality constraints.................:      632
Total number of inequality constraints...............:        0
        inequality constraints with only lower bounds:        0
   inequality constraints with lower and upper bounds:        0
        inequality constraints with only upper bounds:        0

iter    objective    inf_pr   inf_du lg(mu)  ||d||  lg(rg) alpha_du alpha_pr  ls
   0  0.0000000e+00 1.36e+00 2.89e-14  -1.0 0.00e+00    -  0.00e+00 0.00e+00   0
   1  2.8234701e+02 1.13e+00 4.29e+06  -1.0 2.66e+06    -  5.71e-02 5.02e-02h  1
   2  4.6274848e+03 2.14e+00 3.22e+07  -1.0 2.57e+06    -  2.18e-03 1.49e-01H  1
   3  4.7110354e+03 2.13e+00 3.26e+07  -1.0 3.29e+06  -4.0 4.47e-02 3.38e-03h  1
   4  4.7179186e+03 2.13e+00 3.25e+07  -1.0 3.70e+06  -4.5 7.30e-02 2.74e-04h  1
   5  6.3207104e+03 1.08e+00 5.75e+07  -1.0 3.99e+06  -5.0 7.73e-02 5.27e-02h  2
   6  6.7489057e+03 9.24e-01 6.05e+07  -1.0 1.84e+06  -4.5 4.39e-02 2.55e-02h  3
   7  6.9023943e+03 9.13e-01 6.11e+07  -1.0 1.45e+06  -4.1 2.09e-04 1.01e-02h  4
   8  7.6939479e+03 7.59e-01 1.03e+08  -1.0 1.30e+06  -3.7 3.98e-05 5.18e-02h  3
   9  8.1543879e+03 7.24e-01 9.42e+07  -1.0 7.49e+05  -3.3 1.35e-01 4.65e-02h  3
iter    objective    inf_pr   inf_du lg(mu)  ||d||  lg(rg) alpha_du alpha_pr  ls
  10  8.5314138e+03 6.76e-01 7.92e+07  -1.0 5.06e+05  -3.7 2.50e-01 6.65e-02h  2
  11  8.8306346e+03 6.31e-01 9.71e+07  -1.0 3.39e+05  -3.3 3.42e-01 6.61e-02h  1
  12  8.8302317e+03 6.31e-01 9.70e+07  -1.0 6.72e+05  -3.8 5.91e-01 8.93e-04h  1
  13  8.8268016e+03 6.28e-01 9.59e+07  -1.0 1.17e+06  -3.4 3.13e-01 4.90e-03f  1
  14  8.4667758e+03 5.78e-01 5.81e+08  -1.0 2.63e+06  -3.8 3.01e-01 7.86e-02f  2
  15  8.9734264e+03 7.66e-01 1.06e+09  -1.0 7.25e+05  -3.4 3.10e-01 3.58e-01h  1
  16  8.9697159e+03 7.65e-01 1.06e+09  -1.0 1.26e+06  -3.0 3.26e-01 1.79e-03h  1
  17r 8.9697159e+03 7.65e-01 1.00e+03  -0.1 0.00e+00  -3.5 0.00e+00 3.64e-07R  4
  18r 8.9696986e+03 3.84e-01 9.97e+02  -0.1 3.18e+03    -  7.37e-03 1.39e-03f  1
  19  8.9696947e+03 3.84e-01 1.40e+04  -1.0 1.12e+06    -  3.28e-01 2.53e-05h  1
iter    objective    inf_pr   inf_du lg(mu)  ||d||  lg(rg) alpha_du alpha_pr  ls
  20  1.0331381e+04 7.70e-01 1.68e+06  -1.0 1.70e+06    -  3.19e-01 1.62e-01h  2
  21  1.2374692e+04 7.20e-01 1.66e+06  -1.0 4.27e+06    -  2.00e-01 6.49e-02h  3
  22  1.5926088e+04 6.73e-01 3.18e+06  -1.0 6.49e+06    -  1.71e-01 6.57e-02h  2
  23  1.5895536e+04 6.70e-01 2.90e+06  -1.0 1.81e+06  -3.9 5.82e-02 3.26e-03f  1
  24  1.5829328e+04 7.36e-01 7.00e+07  -1.0 2.14e+06  -4.4 6.23e-02 5.33e-02f  3
  25  1.5752870e+04 7.14e-01 6.44e+07  -1.0 1.16e+06  -4.0 1.01e-01 2.98e-02f  3
  26  1.5752908e+04 8.17e-01 6.42e+07  -1.0 5.85e+05  -3.6 1.89e-01 1.76e-03h  8
  27  1.5601859e+04 8.14e-01 6.39e+07  -1.0 2.71e+07  -4.0 4.72e-03 4.75e-03f  4
  28  1.5626448e+04 7.95e-01 6.24e+07  -1.0 7.87e+05  -3.6 3.60e-01 2.24e-02h  1
  29  1.5635528e+04 7.86e-01 6.17e+07  -1.0 4.92e+05  -3.2 3.94e-01 1.18e-02h  1
iter    objective    inf_pr   inf_du lg(mu)  ||d||  lg(rg) alpha_du alpha_pr  ls
  30  1.5697012e+04 9.54e-01 5.76e+07  -1.0 9.07e+05  -3.7 2.29e-02 5.42e-02h  5
  31  1.5697293e+04 9.54e-01 5.75e+07  -1.0 4.12e+05  -2.3 1.84e-01 5.89e-04h  1
  32  1.5965261e+04 7.32e-01 2.27e+08  -1.0 4.19e+05  -2.8 4.32e-01 2.47e-01h  3
  33  1.5905983e+04 6.86e-01 1.96e+08  -1.0 5.54e+05  -3.3 1.21e-01 6.19e-02f  5
  34  1.5915310e+04 8.61e-01 1.79e+08  -1.0 2.60e+05  -2.9 3.53e-03 6.19e-02h  5
  35  1.5577721e+04 2.88e+00 1.98e+08  -1.0 5.90e+05  -3.3 3.85e-01 2.47e-01f  3
  36  1.5481301e+04 2.17e+00 1.49e+08  -1.0 9.90e+04  -2.0 1.27e-01 2.47e-01f  3
  37  1.5313941e+04 1.98e+00 1.37e+08  -1.0 1.61e+05  -2.5 5.39e-01 8.39e-02f  4
  38  1.5056624e+04 5.83e-02 4.29e+08  -1.0 4.15e+04  -2.1 1.08e-01 9.90e-01f  1
  39  1.5073298e+04 5.61e-03 4.74e+07  -1.0 7.69e+03  -2.5 2.81e-02 9.90e-01h  1
iter    objective    inf_pr   inf_du lg(mu)  ||d||  lg(rg) alpha_du alpha_pr  ls
  40  1.5073030e+04 5.67e-05 1.53e+06  -1.0 1.93e+02  -3.0 2.06e-01 9.90e-01h  1
  41  1.5072560e+04 5.67e-07 6.76e+05  -1.0 3.93e+01  -3.5 9.85e-01 9.90e-01h  1
  42  1.5072177e+04 4.27e-07 9.88e+09  -1.0 1.07e+02  -4.0 9.22e-01 2.47e-01f  3
  43  1.5069887e+04 2.21e-07 1.51e+09  -1.0 3.24e+02  -4.4 1.61e-01 4.95e-01f  2
  44  1.5056093e+04 2.87e-07 1.59e+10  -1.0 9.63e+02  -4.9 5.77e-01 9.90e-01f  1
  45  1.4376839e+04 2.32e+00 1.08e+12  -1.0 2.13e+06    -  3.06e-01 2.14e-02f  4
  46  1.4342436e+04 2.32e-02 1.94e+12  -1.0 1.39e+04  -5.4 4.94e-01 9.90e-01f  1
In iteration 46, 32 Slacks too small, adjusting variable bounds
  47  1.4221654e+04 2.32e-04 1.46e+14  -1.0 8.15e+03  -5.9 6.20e-01 9.90e-01f  1
  48  1.1872407e+04 2.97e+00 2.59e+14  -1.0 1.84e+06    -  6.17e-01 9.49e-02F  1
  49  5.5638493e+03 1.08e+01 2.05e+14  -1.0 1.63e+06    -  9.02e-01 3.94e-01f  2
iter    objective    inf_pr   inf_du lg(mu)  ||d||  lg(rg) alpha_du alpha_pr  ls
  50  3.6194582e+03 7.95e+00 1.50e+14  -1.0 1.02e+06    -  2.20e-01 2.63e-01f  1
  51  3.2302320e+03 6.71e+00 1.33e+14  -1.0 5.77e+05    -  1.00e+00 1.55e-01f  1
  52  3.2028046e+03 5.75e-01 1.98e+08  -1.0 3.68e+04  -6.4 1.43e-01 1.00e+00f  1
  53  3.1008846e+03 2.71e-01 3.49e+11  -1.7 2.68e+04  -6.8 3.91e-01 5.29e-01f  1
  54  2.9769221e+03 1.88e-01 8.25e+11  -1.7 7.23e+04  -7.3 1.00e+00 3.08e-01f  1
  55  2.1559117e+03 4.90e+00 5.07e+03  -1.7 2.68e+05  -7.8 1.07e-01 1.00e+00f  1
  56  2.0082265e+03 3.93e+00 4.02e+03  -1.7 3.90e+05  -8.3 7.20e-01 1.97e-01f  1
  57  1.8379351e+03 1.57e+01 3.81e+03  -1.7 3.44e+06    -  3.25e-04 4.23e-02f  3
  58  1.7366067e+03 1.50e+02 2.01e+05  -1.7 1.44e+05  -6.9 3.62e-02 4.53e-01f  1
  59  1.7374844e+03 1.50e+02 2.00e+05  -1.7 9.47e+05  -6.5 1.02e-02 3.83e-03h  1
iter    objective    inf_pr   inf_du lg(mu)  ||d||  lg(rg) alpha_du alpha_pr  ls
  60  1.8408793e+03 1.39e+02 1.88e+05  -1.7 1.19e+06  -7.0 7.02e-04 6.80e-02h  1
  61  1.8443869e+03 1.39e+02 1.87e+05  -1.7 8.48e+05  -6.6 3.39e-01 2.56e-03h  1
  62  1.8558266e+03 1.37e+02 1.85e+05  -1.7 8.49e+05  -7.0 2.46e-01 1.18e-02h  1
  63  6.1831609e+03 9.99e+00 7.67e+05  -1.7 5.76e+05  -6.6 1.00e+00 1.00e+00h  1
  64  5.8257781e+03 2.11e+01 3.18e+05  -1.7 3.31e+05  -6.2 1.06e-01 1.00e+00F  1
  65  6.2043410e+03 1.75e+01 8.37e+05  -1.7 2.10e+06  -6.7 6.93e-04 1.71e-01h  1
  66  6.0027397e+03 7.51e+00 6.82e+07  -1.7 1.47e+05  -4.4 2.22e-02 1.00e+00f  1
  67  5.9990524e+03 7.40e+00 6.72e+07  -1.7 3.36e+05  -4.0 1.00e+00 1.56e-02f  1
  68  6.0001279e+03 7.35e+00 6.67e+07  -1.7 2.34e+05  -3.6 6.01e-02 6.76e-03h  1
  69  6.8944587e+03 3.48e+00 2.71e+07  -1.7 3.11e+05  -4.1 1.00e+00 5.27e-01h  1
iter    objective    inf_pr   inf_du lg(mu)  ||d||  lg(rg) alpha_du alpha_pr  ls
  70  6.8655373e+03 3.22e+00 2.52e+07  -1.7 1.42e+05  -3.6 6.39e-04 7.49e-02f  1
  71  6.8650478e+03 3.21e+00 2.52e+07  -1.7 1.40e+05  -4.1 1.00e+00 8.72e-04f  1
  72  6.8647608e+03 3.21e+00 2.52e+07  -1.7 8.86e+05  -4.6 1.73e-02 3.22e-05f  1
  73  6.8230600e+03 2.74e+00 2.18e+07  -1.7 1.74e+05  -4.2 1.00e+00 1.47e-01f  1
  74  6.7443613e+03 4.33e+00 1.46e+07  -1.7 1.70e+05  -4.6 5.48e-01 1.00e+00f  1
  75  8.0656679e+03 2.82e+00 1.04e+07  -1.7 8.84e+05  -5.1 4.85e-01 3.49e-01h  1
  76  8.0705425e+03 2.76e+00 1.02e+07  -1.7 6.34e+04  -3.8 1.00e+00 1.90e-02h  1
  77  8.0706262e+03 2.76e+00 1.02e+07  -1.7 6.12e+04  -4.3 1.00e+00 3.49e-04h  1
  78  8.1135070e+03 2.05e+00 7.80e+06  -1.7 7.15e+04  -3.8 1.00e+00 2.60e-01h  1
  79  8.2781570e+03 7.96e-03 5.45e+05  -1.7 4.91e+04  -4.3 1.00e+00 1.00e+00h  1
iter    objective    inf_pr   inf_du lg(mu)  ||d||  lg(rg) alpha_du alpha_pr  ls
  80  8.2570506e+03 2.69e-04 6.06e+09  -3.8 6.65e+03  -4.8 9.90e-01 1.00e+00f  1
  81  8.2418664e+03 6.37e-07 1.80e+08  -3.8 6.65e+02  -5.3 9.70e-01 1.00e+00f  1
  82  2.0456219e+03 7.57e+00 1.79e+08  -3.8 7.51e+05    -  4.95e-03 7.86e-01f  1
  83  1.9974618e+03 7.44e+00 1.75e+08  -3.8 3.58e+05    -  2.42e-02 4.68e-01f  1
  84  1.9941697e+03 1.13e+01 1.74e+08  -3.8 1.87e+05  -5.7 5.20e-03 1.12e-02f  1
  85r 1.9941697e+03 1.13e+01 1.00e+03   1.1 0.00e+00  -6.2 0.00e+00 2.40e-09R  2
  86r 1.9941694e+03 1.15e+01 1.00e+03   1.1 1.12e+04    -  1.89e-03 1.15e-04f  1
  87r 1.9941611e+03 1.43e+01 8.86e+11   1.1 2.00e+03    -  3.38e-04 3.46e-03f  1
MA27BD returned iflag=-4 and requires more memory.
 Increase liw from 35915 to 71830 and la from 38400 to 76942 and factorize again.
MA27BD returned iflag=-4 and requires more memory.
 Increase liw from 71830 to 143660 and la from 76942 to 163796 and factorize again.
  88r 1.9941611e+03 1.84e+01 3.21e+19   1.1 4.38e-02  11.5 1.00e+00 1.00e+00f  1
Scaling factors are invalid - setting them all to 1.
Scaling factors are invalid - setting them all to 1.
Scaling factors are invalid - setting them all to 1.
Scaling factors are invalid - setting them all to 1.
Scaling factors are invalid - setting them all to 1.
Scaling factors are invalid - setting them all to 1.
Scaling factors are invalid - setting them all to 1.
Scaling factors are invalid - setting them all to 1.
Scaling factors are invalid - setting them all to 1.
Scaling factors are invalid - setting them all to 1.
Scaling factors are invalid - setting them all to 1.
Scaling factors are invalid - setting them all to 1.
Scaling factors are invalid - setting them all to 1.
WARNING: Problem in step computation; switching to emergency mode.
  89r 1.9941611e+03 1.84e+01 3.21e+19   1.1 4.38e-02  19.8 0.00e+00 0.00e+00R  1
Scaling factors are invalid - setting them all to 1.
Scaling factors are invalid - setting them all to 1.
Scaling factors are invalid - setting them all to 1.
Scaling factors are invalid - setting them all to 1.
Scaling factors are invalid - setting them all to 1.
Scaling factors are invalid - setting them all to 1.
Scaling factors are invalid - setting them all to 1.
Scaling factors are invalid - setting them all to 1.
Scaling factors are invalid - setting them all to 1.
Scaling factors are invalid - setting them all to 1.
Scaling factors are invalid - setting them all to 1.
Scaling factors are invalid - setting them all to 1.
Scaling factors are invalid - setting them all to 1.
Scaling factors are invalid - setting them all to 1.
iter    objective    inf_pr   inf_du lg(mu)  ||d||  lg(rg) alpha_du alpha_pr  ls
  90r 1.9941611e+03 1.84e+01 3.19e+19   1.1 4.13e-11  20.0 9.91e-01 1.00e+00f  1
Scaling factors are invalid - setting them all to 1.
Scaling factors are invalid - setting them all to 1.
  91r 1.9941611e+03 1.84e+01 1.14e+18   1.1 4.38e-11  19.5 1.00e+00 1.00e+00h  1
  92r 1.9941611e+03 1.84e+01 3.41e+16   1.1 4.03e-12  19.0 1.00e+00 1.00e+00h  1
  93r 1.9941611e+03 1.84e+01 9.05e+14   1.1 2.54e-12  18.6 1.00e+00 1.00e+00h  1
  94r 1.9941611e+03 1.84e+01 2.20e+13   1.1 1.67e-12  18.1 1.00e+00 1.00e+00h  1
  95r 1.9941611e+03 1.84e+01 5.02e+11   1.1 1.10e-12  17.6 1.00e+00 1.00e+00h  1
  96r 1.9941611e+03 1.84e+01 1.10e+10   1.1 1.34e-12  17.1 1.00e+00 1.00e+00h  1
  97r 1.9941611e+03 1.84e+01 2.34e+08   1.1 4.01e-12  16.7 1.00e+00 1.00e+00f  1
  98r 1.9941611e+03 1.84e+01 4.86e+06   1.1 1.20e-11  16.2 1.00e+00 1.00e+00f  1
  99r 1.9941611e+03 1.84e+01 1.84e+05   1.1 3.61e-11  15.7 1.00e+00 1.00e+00f  1
iter    objective    inf_pr   inf_du lg(mu)  ||d||  lg(rg) alpha_du alpha_pr  ls
 100r 1.9941611e+03 1.84e+01 1.84e+05   1.1 1.08e-10  15.2 1.00e+00 1.00e+00f  1
 101r 1.9941611e+03 1.84e+01 1.84e+05   1.1 3.25e-10  14.8 1.00e+00 1.00e+00f  1
 102r 1.9941611e+03 1.84e+01 1.84e+05   1.1 9.75e-10  14.3 1.00e+00 1.00e+00f  1
 103r 1.9941611e+03 1.84e+01 1.84e+05   1.1 2.93e-09  13.8 1.00e+00 1.00e+00f  1
 104r 1.9941611e+03 1.84e+01 1.84e+05   1.1 8.78e-09  13.3 1.00e+00 1.00e+00f  1
 105r 1.9941611e+03 1.84e+01 1.83e+05   1.1 2.63e-08  12.8 1.00e+00 1.00e+00f  1
 106r 1.9941611e+03 1.84e+01 1.83e+05   1.1 7.88e-08  12.4 1.00e+00 1.00e+00f  1
 107r 1.9941611e+03 1.84e+01 1.82e+05   1.1 2.35e-07  11.9 1.00e+00 1.00e+00f  1
 108r 1.9941611e+03 1.84e+01 1.79e+05   1.1 6.93e-07  11.4 1.00e+00 1.00e+00f  1
 109r 1.9941611e+03 1.84e+01 1.29e+20   1.1 4.58e+00  10.9 1.22e-03 4.09e-03f  2
Scaling factors are invalid - setting them all to 1.
Scaling factors are invalid - setting them all to 1.
Scaling factors are invalid - setting them all to 1.
Scaling factors are invalid - setting them all to 1.
Scaling factors are invalid - setting them all to 1.
Scaling factors are invalid - setting them all to 1.
Scaling factors are invalid - setting them all to 1.
Scaling factors are invalid - setting them all to 1.
Scaling factors are invalid - setting them all to 1.
Scaling factors are invalid - setting them all to 1.
Scaling factors are invalid - setting them all to 1.
Scaling factors are invalid - setting them all to 1.
Scaling factors are invalid - setting them all to 1.
Scaling factors are invalid - setting them all to 1.
Scaling factors are invalid - setting them all to 1.
Scaling factors are invalid - setting them all to 1.
Scaling factors are invalid - setting them all to 1.
Scaling factors are invalid - setting them all to 1.
Scaling factors are invalid - setting them all to 1.
Scaling factors are invalid - setting them all to 1.
Scaling factors are invalid - setting them all to 1.
Scaling factors are invalid - setting them all to 1.
Scaling factors are invalid - setting them all to 1.
WARNING: Problem in step computation; switching to emergency mode.
iter    objective    inf_pr   inf_du lg(mu)  ||d||  lg(rg) alpha_du alpha_pr  ls
 110r 1.9941611e+03 1.84e+01 1.29e+20   1.1 4.58e+00  20.0 0.00e+00 0.00e+00R  1
Scaling factors are invalid - setting them all to 1.
Scaling factors are invalid - setting them all to 1.
Scaling factors are invalid - setting them all to 1.
Scaling factors are invalid - setting them all to 1.
Scaling factors are invalid - setting them all to 1.
Scaling factors are invalid - setting them all to 1.
Scaling factors are invalid - setting them all to 1.
Scaling factors are invalid - setting them all to 1.
Scaling factors are invalid - setting them all to 1.
Scaling factors are invalid - setting them all to 1.
Scaling factors are invalid - setting them all to 1.
Scaling factors are invalid - setting them all to 1.
Scaling factors are invalid - setting them all to 1.
Scaling factors are invalid - setting them all to 1.
WARNING: Problem in step computation; switching to emergency mode.
Restoration phase is called at point that is almost feasible,
  with constraint violation 0.000000e+00. Abort.
Restoration phase in the restoration phase failed.

Number of Iterations....: 110

                                   (scaled)                 (unscaled)
Objective...............:   1.9941610870207405e+03    1.9941610870207405e+03
Dual infeasibility......:   1.2852626132080311e+20    1.2852626132080311e+20
Constraint violation....:   1.8436022997880400e+01    1.8436022997880400e+01
Complementarity.........:   1.1291745007797923e+01    1.1291745007797923e+01
Overall NLP error.......:   9.8706465740006400e+15    1.2852626132080311e+20


Number of objective function evaluations             = 227
Number of objective gradient evaluations             = 87
Number of equality constraint evaluations            = 227
Number of inequality constraint evaluations          = 0
Number of equality constraint Jacobian evaluations   = 113
Number of inequality constraint Jacobian evaluations = 0
Number of Lagrangian Hessian evaluations             = 111
Total CPU secs in IPOPT (w/o function evaluations)   =      0.836
Total CPU secs in NLP function evaluations           =      3.173

EXIT: Restoration Failed!
